\ This file has been generated by DOcplex
\ ENCODING=ISO-8859-1
\Problem name: CPLEX

Minimize
 obj: 9 b_0 - 8 b_1 - 3 b_2 + 17 b_3 + 5 b_4 + 19 b_5 - 8 b_6 + 13 b_7 + 20 b_9
      + 16 b_10 - 7 b_11 + 7 i_0 + 14 i_1 + 20 i_2 + 10 i_3 - 4 i_4 + 16 i_5
      - 2 i_6 - 7 i_7 - 8 i_8 + 5 i_9 + 18 f_0 - 7 f_1 - 2 f_2 + 19 f_3 + 17 f_4
      + 3
Subject To
 lin_eq_0: - 5 b_2 - 5 b_5 + 20 b_8 + 17 i_0 + 18 i_4 - 7 i_5 + 20 f_3 <= 2513
 lin_eq_1: 9 b_2 - 6 b_4 - 4 b_6 + 20 b_7 - 10 b_8 + i_0 - 5 i_5 + 6 i_9 <= -32
 lin_eq_2: 12 b_0 + 4 b_3 + b_10 + 7 i_2 + 18 i_5 + 8 i_8 <= 768
 lin_eq_3: - 4 b_1 + b_2 - 10 b_6 + 8 i_0 + 18 i_2 + 15 i_4 + 4 i_7 + 7 f_4 <= 
           1711
 lin_eq_4: - b_0 + 19 b_7 + 5 i_2 + 7 i_4 + 11 i_7 - 8 f_2 <= 530
 lin_eq_5: 6 b_6 - 7 b_10 + 7 i_1 - 7 i_3 + 12 i_6 + 8 f_1 + 16 f_2 <= 758
 lin_eq_6: 20 b_1 + 13 b_3 + 3 b_4 - 10 i_4 + 17 i_7 + 3 f_3 - 9 f_4 <= 258
 lin_eq_7: 2 b_2 + 14 b_5 + 12 i_3 + 13 i_4 + i_7 - 4 f_4 <= 1992
 lin_eq_8: - 10 b_2 - 6 b_3 + b_5 + 14 b_7 - 2 b_9 + 5 i_5 + 5 f_3 <= 426
 lin_eq_9: 6 b_2 + 9 b_6 + 8 b_7 - 3 i_2 - 6 i_4 + i_5 <= 634
 lin_eq_10: 12 b_1 + 7 b_3 + 8 b_4 - i_5 - 9 i_7 - 9 i_9 <= -383
 lin_eq_11: - 2 b_0 + 4 b_4 + 11 b_9 - 4 b_11 + 9 i_4 + 5 i_5 + 5 i_9 + 3 f_4
             <= 622
 lin_eq_12: 8 b_0 + b_7 + 4 b_8 + 18 b_9 + 12 i_5 + 14 f_3 <= 1997
 lin_eq_13: - 2 b_0 - b_3 - 8 b_7 - 3 b_10 + 14 i_2 + 19 i_8 - 7 f_0 <= 687
 lin_eq_14: 8 b_1 + 13 b_6 + 10 b_9 - 3 i_1 + 19 i_6 - 7 i_9 - 2 f_2 + 19 f_4
             <= 371
 lin_eq_15: - 6 b_0 + 14 b_3 - 5 b_10 - 7 b_11 + 17 i_1 + 6 i_5 + 10 i_6 <= 391

Bounds
 0 <= b_0 <= 1
 0 <= b_1 <= 1
 0 <= b_2 <= 1
 0 <= b_3 <= 1
 0 <= b_4 <= 1
 0 <= b_5 <= 1
 0 <= b_6 <= 1
 0 <= b_7 <= 1
 0 <= b_8 <= 1
 0 <= b_9 <= 1
 0 <= b_10 <= 1
 0 <= b_11 <= 1
 5 <= i_0 <= 80
 2 <= i_1 <= 81
 1 <= i_2 <= 58
 1 <= i_3 <= 71
 3 <= i_4 <= 75
 1 <= i_5 <= 75
 1 <= i_6 <= 98
 4 <= i_7 <= 50
 4 <= i_8 <= 66
 3 <= i_9 <= 63
 3 <= f_0 <= 92
 2 <= f_1 <= 77
 2 <= f_2 <= 58
 1 <= f_3 <= 76
 4 <= f_4 <= 72

Binaries
 b_0 b_1 b_2 b_3 b_4 b_5 b_6 b_7 b_8 b_9 b_10 b_11

Generals
 i_0 i_1 i_2 i_3 i_4 i_5 i_6 i_7 i_8 i_9
End
